! B97-3c Opt Freq tightscf 

%scf
smeartemp 5000
end

%pal
nproc 4
end

%maxcore 4000

%base "XSASRUDTFFBDDK-UHFFFAOYSA-N"

* xyz 0 1
  O   -0.89738471       1.29692524      -0.22437532     
  O   -1.56302948       0.17921955       0.35057654     
  C   -1.04880282      -0.99974914      -0.20897618     
  C    0.42057336      -1.22232353       0.16926079     
  C    1.27735402      -0.11352258      -0.38481842     
  O    2.04362896       0.54694936       0.25807217     
  H   -0.71508267       1.86967202       0.53390010     
  H   -1.68756019      -1.77842524       0.21295082     
  H   -1.16191307      -0.97968672      -1.30025754     
  H    0.75448917      -2.16496837      -0.26702786     
  H    0.53223665      -1.26290037       1.25413929     
  H    1.15835247       0.03467558      -1.47455020     
*
