# B3LYP/6-31G** IRC=(CALCALL, maxpoints=60, StepSize=10, maxcyc=100, Report=Cartesians)

pp_1_0 IRC

0 1
C   -2.35185600       0.00053100       0.83440900     
C   -0.76967200       0.18390700       1.89200200     
C    0.21569300      -0.60663600       1.46359700     
H   -1.13209700       0.67345600       2.79517100     
H   -2.86789900      -0.61317600       1.56508700     
H   -2.94996100       0.88563600       0.59257600     
H   -2.03957800      -0.57452900      -0.03465000     
H   -1.23478200       0.77118700       0.96774100     
H    0.99688700      -0.70781900       2.23462100     

