# B3LYP/6-31G** IRC=(CALCALL, maxpoints=60, StepSize=10, maxcyc=100, Report=Cartesians)

pp_2_2 IRC

0 1
C   -2.56221600       0.30414400       1.52145900     
C   -1.27657800      -0.42611100       1.71154700     
C   -0.10180900       0.03369700       1.02807900     
H   -1.12091300      -0.87599200       2.69995700     
H   -3.46848700      -0.28434200       1.38461200     
H   -2.53819700       1.25065800       0.98388900     
H   -1.60672100      -1.26325600       1.03462100     
H   -0.20194800       0.43312700       0.02436700     
H    0.85255600       0.16113100       1.52781600     

