# B3LYP/6-31G** IRC=(CALCALL, maxpoints=60, StepSize=10, maxcyc=100, Report=Cartesians)

pp_2_0 IRC

0 1
C   -2.38700700      -0.08157700       0.84144200     
C   -1.38610900       0.13899900       1.75309500     
C   -0.07766000      -0.13965000       1.21326300     
H   -1.48844700       0.99420500       2.42062300     
H   -2.26464200      -0.64758800       2.86435100     
H   -3.34062800       0.44636200       0.87167600     
H   -2.24528500      -0.81862100       0.05602300     
H    0.74135900       0.52626600       1.45735900     
H    0.16841500      -1.12441400       0.83288500     

