# B3LYP/6-31G** IRC=(CALCALL, maxpoints=60, StepSize=10, maxcyc=100, Report=Cartesians)

pp_3_2 IRC

0 1
C   -2.46412300       0.45320800       1.27257100     
C   -1.21283100      -0.02376100       1.58353100     
C    0.02868700       0.18131300       1.07919500     
H   -1.44761700      -0.95532500       2.28574300     
H   -3.32095100       0.10764400       1.83712000     
H   -2.61081500       1.29199400       0.59238000     
H   -2.44090800      -1.53034300       1.78150400     
H    0.17990500       0.43992600       0.03493300     
H    0.91425500      -0.02198200       1.67113300     

