# B3LYP/6-31+G* OPT=(TS, CALCALL, NOEIGEN, maxcycles=100) Freq 

pp_14_0 TS

0 1
C    0.96908900       1.36037700      -2.34039600     
C    0.49095600       0.49399500      -1.18737800     
C    1.37908100      -0.68159900      -0.92480900     
O    0.30179900       2.32273200      -2.74865800     
O    1.02073300       3.28143500      -1.19280500     
O    2.46044000      -0.85401300      -1.41582500     
H    1.16266100       4.18990800      -1.46721100     
H    2.15109600       2.10253100      -1.72960600     
H    1.51525200       0.77896400      -3.11479300     
H    0.94237400      -1.42244300      -0.22721300     
H   -0.53624500       0.16882100      -1.36402900     
H    0.47937300       1.10765200      -0.28069500     

