# B3LYP/6-31+G* OPT=(TS, CALCALL, NOEIGEN, maxcycles=100) Freq 

pp_12_0 TS

0 1
C    0.68645700       1.23022600      -2.19994400     
C    0.17794600       0.68057700      -1.03479600     
C    1.68993700      -0.42004000      -1.08924000     
O    0.87124700       2.48149500      -2.55800600     
O    1.32801100       3.35257500      -1.51864600     
O    1.81320500      -0.98389400      -0.03871200     
H    1.32813600       4.20532500      -1.96421400     
H    2.43055200       0.95013500      -1.31012600     
H    0.53460500       0.66449300      -3.12717300     
H    1.78485100      -0.78339700      -2.09063600     
H   -0.74150000       0.11758100      -1.00200300     
H    0.41755000       1.19600900      -0.11835900     

