# B3LYP/6-31+G* OPT=(TS, CALCALL, NOEIGEN, maxcycles=100) Freq 

pp_13_3 TS

0 1
C    0.89439300       1.56372500      -1.29823900     
C    0.66201500       0.15416200      -1.59354600     
C    1.80589100      -0.61539200      -1.17352600     
O    1.05573100       2.33136000      -2.31828200     
O    1.44037400       3.67774200      -1.99615800     
O    2.86260900      -0.15699200      -0.76516600     
H    2.22282700       3.84458100      -2.54595900     
H    1.48521100       1.78007300      -0.40942900     
H   -1.05501600       1.66984000      -1.55178100     
H    1.66952500      -1.72061400      -1.25144100     
H    0.14182800      -0.10325200      -2.50216700     
H   -0.81334500       0.41999000      -1.02315300     

