# B3LYP/6-31+G* OPT=(TS, CALCALL, NOEIGEN, maxcycles=100) Freq 

pp_10_0 TS

0 1
C    1.21785500       0.57759100      -2.62977400     
C    0.12742200       0.47291600      -1.35518200     
C    1.32032800       0.74259900      -0.37698000     
O    1.94007200       2.19854600      -1.46468200     
O    0.73428500       2.91063100      -1.54772400     
O    1.85865100       0.85729400       0.65300900     
H    0.99575500       3.80783800      -1.30289000     
H    2.10005100       0.12280900      -3.16965700     
H    0.69733800       0.92010200      -3.51136700     
H    1.24728800      -0.51970100      -1.88700600     
H   -0.90125000       0.21761000      -1.61271500     
H   -0.72554600       0.62934800      -0.44343100     

