# B3LYP/6-31+G* OPT=(TS, CALCALL, NOEIGEN, maxcycles=100) Freq 

pp_19_1 TS

0 1
C    1.38571700       1.38382500      -2.50520100     
C    0.48027800       0.37915300      -1.85913800     
C    0.76066600      -0.31454600      -0.71092500     
O    0.80465700       2.67087200      -2.46490900     
O    0.94719600       3.10855700      -1.10660900     
O    1.71937100       0.10653900       0.06681800     
H    0.58738800       4.00394400      -1.13343500     
H    2.36553200       1.40427600      -2.00950300     
H    1.53203500       1.18528300      -3.57233100     
H    0.10752900      -1.12091000      -0.37161400     
H   -0.28581400      -0.11536700      -2.44873500     
H    0.94085900       1.26711400      -0.47048600     

