# B3LYP/6-31+G* OPT=(TS, CALCALL, NOEIGEN, maxcycles=100) Freq 

pp_20_1 TS

0 1
C    1.44646400       1.53046300      -2.65210600     
C    1.03687400       0.58500000      -1.59722000     
C    1.60096300       0.22043000      -0.23743200     
O    0.79827000       2.77698000      -2.40735900     
O    1.25591400       3.38223400      -1.19594600     
O    2.44249500      -0.53586100      -0.51397000     
H    1.06938800       4.32444800      -1.34796200     
H    2.54424400       1.63518100      -2.70791700     
H    1.03612400       1.27764300      -3.63177300     
H   -0.83090100      -0.30046900       0.03934100     
H    0.36793000      -0.21400300      -1.93251600     
H   -0.54830900       0.58480000      -0.30552800     

