# B3LYP/6-31+G* OPT=(TS, CALCALL, NOEIGEN, maxcycles=100) Freq 

pp_24_0 TS

0 1
C    1.16051200       0.95925800      -3.22728300     
C    0.64772800       0.64670900      -0.97570400     
C    1.35868700       0.85617300      -0.20918400     
O    0.50654700       2.22371800      -3.03685000     
O    1.96742700       2.16849900      -0.43638200     
O    1.59680800       0.47710900       0.88407900     
H    1.35912700       2.78913100      -0.63060700     
H    2.23178100       0.33465200      -3.23511100     
H    1.15822100       2.01592800      -4.24467200     
H    1.35190600       0.13961200      -2.15569800     
H    0.25294100      -0.34091600      -0.79561800     
H   -0.10733700       1.49284700      -0.97574100     

