# B3LYP/6-31+G* OPT=(TS, CALCALL, NOEIGEN, maxcycles=100) Freq 

pp_3_0 TS

0 1
C    1.50888500       1.25546600      -2.32472300     
C    0.76805200       0.69170900      -0.31486700     
C    1.11205500      -0.51668500      -0.77827600     
O    1.41095000       2.60821100      -2.21203600     
O    0.17900800       3.14193000      -1.68939300     
O    1.71404500      -1.52523900      -0.71070400     
H    0.34591600       4.09067400      -1.73384100     
H    2.51471800       0.96052800      -2.03043300     
H    1.34758100       0.93047000      -3.35339800     
H    0.59904600      -0.26347500      -2.11586200     
H    0.68568700       0.97461800       0.75225900     
H    0.01084800       1.32603400      -0.73261900     

