# B3LYP/6-31+G* OPT=(TS, CALCALL, NOEIGEN, maxcycles=100) Freq 

pp_4_0 TS

0 1
C    1.61748800       1.59257000      -2.54779100     
C    0.45415500       0.77068600      -0.88715500     
C    1.28367400      -0.45822600      -0.92344900     
O    0.75150800       2.44238000      -2.80362700     
O    0.54614700       3.03433800      -0.91847500     
O    2.29525200      -0.74408600      -1.49116500     
H    0.46032000       3.78730900      -1.50853900     
H    2.50076000       1.83986000      -1.96110900     
H    1.79242700       0.83297100      -3.31915100     
H    0.81610600      -1.22101500      -0.25007700     
H   -0.54490100       0.58484300      -1.25799500     
H    0.43451800       1.05777500       0.16076400     

