# B3LYP/6-31+G* OPT=(TS, CALCALL, NOEIGEN, maxcycles=100) Freq 

pp_5_0 TS

0 1
C    1.77344700       1.54925900      -2.34125900     
C    0.50304100       0.62475000      -1.26742200     
C    1.27832700      -0.58657500      -0.90365200     
O    0.50522500       1.88576000      -2.52274900     
O    0.90073900       3.29925800      -1.07565100     
O    2.25901700      -1.05041400      -1.39721200     
H    0.55522100       4.09511200      -1.46214000     
H    2.50778300       1.51530000      -1.56475800     
H    2.11241700       1.37262000      -3.37125800     
H    0.79331400      -1.05953300      -0.02684400     
H   -0.52918000       0.36737200      -1.52237400     
H    0.47759400       1.36421000      -0.43907500     

