# B3LYP/6-31+G* OPT=(TS, CALCALL, NOEIGEN, maxcycles=100) Freq 

pp_7_0 TS

0 1
C    1.90202600       1.65609800      -0.91129900     
C    0.78559500       1.47636500      -0.04788100     
C    0.61439200      -0.58250000      -2.59016700     
O    1.08851600       1.14714600      -2.23792600     
O   -0.06469300       1.99846700      -2.31415300     
O    1.04090500      -1.69716000      -2.61957300     
H    0.19983000       2.74853400      -2.82211400     
H    2.65050500       2.43986400      -0.95595200     
H    2.59437000       0.82329700      -1.05785300     
H    0.10998400      -0.16653200      -3.44540800     
H    1.22637800       0.96007300       0.79842400     
H   -0.02333300       2.10403800       0.20665500     

