# B3LYP/6-31+G* OPT=(TS, CALCALL, NOEIGEN, maxcycles=100) Freq 

pp_8_1 TS

0 1
C    1.31546400       1.25402200      -2.53440800     
C    0.86493400       0.07578100      -1.96561200     
C    1.06324400      -0.27967500      -0.54861900     
O    0.30249000       2.46946300      -1.19816500     
O    0.94184500       3.69234000      -1.53980800     
O    1.69513600       0.31438100       0.29542000     
H    0.95321300       4.16194100      -0.69635900     
H    2.08661600       1.89900700      -2.12140200     
H    1.26027200       1.41418100      -3.60755300     
H    0.52457700      -1.21867900      -0.28977300     
H    0.71158400      -0.82893100      -2.54978600     
H    0.01478900       1.21967300      -1.21641700     

