# B3LYP/6-31+G* OPT=(TS, CALCALL, NOEIGEN, maxcycles=100) Freq 

pp_9_0 TS

0 1
C    2.09325900       1.63260400      -2.40194300     
C    1.45588900       0.55306000      -1.58904100     
C    0.87037200       0.02951300      -0.32019000     
O   -0.07025900       1.73321800      -2.36857800     
O   -0.33271600       2.67157100      -1.38579100     
O    1.55325400      -0.39399800       0.56781600     
H   -1.01898200       3.23017900      -1.78374400     
H    2.69649900       1.07496300      -3.10456700     
H    2.41784100       2.60410600      -2.06421700     
H   -0.22476400       0.02869500      -0.28001400     
H    1.08377800       0.02684800      -2.51050100     
H    2.59440400       0.65951900      -1.19613600     

