# B3LYP/6-31+G* IRC=(CALCALL, maxpoints=40, StepSize=15, maxcyc=100, Report=Cartesians)

pp_12_1 IRC

0 1
C   -0.36895800       0.27950100      -0.43794600     
C    0.74410500       1.11233300      -0.06599600     
C    1.47540300      -0.28996300       0.44422200     
O   -1.50835200       0.42934800       0.22857400     
O   -2.36514800      -0.73596200      -0.03950000     
O    2.46067100      -0.71134800      -0.21863500     
H   -3.23228800      -0.33475000       0.16287500     
H   -0.39287300      -0.30959800      -1.35097700     
H    0.48081800      -1.00850100       0.39007300     
H    1.48081600      -0.16993000       1.54744400     
H    0.54213600       1.82415800       0.73433700     
H    1.32072900       1.53109300      -0.88894700     

