# B3LYP/6-31+G* IRC=(CALCALL, maxpoints=40, StepSize=15, maxcyc=100, Report=Cartesians)

pp_15_0 IRC

0 1
C    0.44894900       0.70388700       0.28809800     
C   -0.57592100      -0.14074100      -0.38902300     
C   -1.89240300      -0.22914500       0.35234900     
O    1.68997900       0.72969200      -0.22248900     
O    2.53456100      -0.89622600       0.17746400     
O   -2.97516800      -0.12421700      -0.17983300     
H    3.12578600      -0.99047000      -0.59197600     
H    1.31005400       1.79983600      -0.08157200     
H    0.35825900       0.92147200       1.35720300     
H   -1.81651700      -0.41716300       1.44562600     
H   -0.11559100      -1.14867200      -0.40844500     
H   -0.74072000       0.15700100      -1.43051200     

