# B3LYP/6-31+G* IRC=(CALCALL, maxpoints=40, StepSize=15, maxcyc=100, Report=Cartesians)

pp_14_1 IRC

0 1
C   -0.45082800       0.45517100      -0.52590600     
C    0.70243900       0.89811200       0.37714800     
C    1.93065700       0.02767900       0.25779900     
O   -1.65594000       0.84042000      -0.19330100     
O   -2.01248900      -1.01049100       0.31429200     
O    1.96180800      -1.03000900      -0.33655500     
H   -2.74112800      -1.60378600       0.62125700     
H   -0.25336700       0.43459400      -1.61230100     
H   -0.63783700      -0.74802900      -0.30387900     
H    2.83957200       0.40852000       0.77093100     
H    0.37136700       0.88111300       1.42623400     
H    0.98074300       1.94245300       0.16801700     

