# B3LYP/6-31+G* IRC=(CALCALL, maxpoints=40, StepSize=15, maxcyc=100, Report=Cartesians)

pp_23_0 IRC

0 1
C   -1.19887300       0.84116800       0.04893400     
C    0.24317900       1.25177800      -0.19147800     
C    1.26965300       0.25418900       0.42402900     
O   -1.50936900      -0.58248900      -0.17143500     
O   -0.48355800      -1.34878200       0.16758600     
O    1.74434400      -0.60614400      -0.43147100     
H    0.63414800      -0.40633700       1.18399900     
H   -1.47988700       0.99424400       1.10279700     
H   -1.91534100       1.36535400      -0.58794400     
H    2.03294400       0.68660300       1.10808800     
H    0.36677100       2.25225400       0.24808400     
H    0.46627100       1.32438400      -1.26137500     

