# B3LYP/6-31+G* IRC=(CALCALL, maxpoints=40, StepSize=15, maxcyc=100, Report=Cartesians)

pp_24_0 IRC

0 1
C    3.20603600       0.44599700       0.00002400     
C   -1.53122400      -1.34137000       0.00001200     
C   -1.48720800       0.17652000      -0.00000100     
O    2.31047700      -0.51619000      -0.00001400     
O   -0.24318700       0.72614100      -0.00002300     
O   -2.46281300       0.88819400       0.00000600     
H    0.45673600       0.04195600      -0.00002700     
H    2.76736600       1.46646700       0.00006800     
H    3.43358400      -0.82186600      -0.00004000     
H   -1.02427800      -1.74295600       0.88592600     
H   -2.57053200      -1.67266800       0.00003300     
H   -1.02431100      -1.74296900      -0.88591500     

