# B3LYP/6-31+G* IRC=(CALCALL, maxpoints=40, StepSize=15, maxcyc=100, Report=Cartesians)

pp_20_0 IRC

0 1
C   -0.86592300       1.01837400       0.32398900     
C    0.49755500       0.92144300      -0.25984000     
C    1.41458200      -0.03031400       0.19189100     
O   -1.80573200       0.07907100      -0.29817200     
O   -1.34432600      -1.24679000       0.08823600     
O    2.54466800      -0.42558200      -0.13464600     
H   -1.37159900      -1.70198200      -0.77483300     
H   -0.89947900       0.83474900       1.40492800     
H   -1.34251400       1.98037500       0.11846400     
H    0.42959700      -0.85961800       0.37007500     
H    1.01058000      -0.46689300       1.24836300     
H    0.73925000       1.50276500      -1.14658100     

