# B3LYP/6-31+G* IRC=(CALCALL, maxpoints=40, StepSize=15, maxcyc=100, Report=Cartesians)

pp_5_0 IRC

0 1
C    0.72107300       0.41034000      -0.09068100     
C   -0.88573500      -0.95888700      -0.21842400     
C   -1.86220800      -0.05088300       0.41033200     
O    1.23646900      -0.75843500       0.03692000     
O    2.71939100       0.50044900      -0.04801000     
O   -2.49374700       0.79576600      -0.20502200     
H    2.99448900       0.49244100       0.89009600     
H    0.57927100       0.86515100      -1.07374200     
H    0.48841600       1.02379600       0.78448100     
H   -1.99434500      -0.16737300       1.50502700     
H   -0.68368200      -1.88249500       0.31734600     
H   -0.91982900      -1.03719000      -1.30166800     

