# B3LYP/6-31+G* IRC=(CALCALL, maxpoints=40, StepSize=15, maxcyc=100, Report=Cartesians)

pp_8_0 IRC

0 1
C    0.44997300       1.00974100       0.27470300     
C   -0.72973500       0.49965100      -0.40732100     
C   -1.77813400      -0.18556100       0.34018600     
O    1.27294300      -0.27244300      -0.11504400     
O    2.86273100      -0.42978300      -0.06639400     
O   -2.87166400      -0.49809700      -0.10929000     
H    2.90634900      -1.08064800       0.66004700     
H    0.97170900       1.85682900      -0.16680100     
H    0.43932900       1.03579400       1.36430700     
H   -1.51592000      -0.43382400       1.39462500     
H    0.41492100      -0.60457200      -0.77832000     
H   -0.98109300       0.88601200      -1.39343800     

