# B3LYP/6-31+G* IRC=(CALCALL, maxpoints=40, StepSize=15, maxcyc=100, Report=Cartesians)

pp_9_0 IRC

0 1
C   -0.42338700       1.47933900      -0.45980800     
C   -0.73445800       0.67015900       0.66050100     
C   -1.19343600      -0.73292200       0.44792900     
O    1.21612100       0.11779500       0.00830400     
O    2.40140300      -0.64129000      -0.15409500     
O   -1.76183300      -1.10010100      -0.56337900     
H    3.03208200      -0.18914100       0.43625900     
H   -0.02090500       2.47648300      -0.32662200     
H   -0.63954000       1.10167100      -1.45191900     
H   -0.98920900      -1.41614000       1.29045600     
H   -0.48515700       1.02185200       1.65681400     
H   -1.63511600       1.49459100       0.17664400     

