# B3LYP/6-31G** OPT=(TS, CALCALL, NOEIGEN, maxcycles=100) Freq 

pp_1_0 TS

0 1
C   -2.54495100       0.05047700       0.83581800     
C   -0.72295600      -0.17526500       2.27537900     
C    0.40515300      -0.09095600       1.71350500     
H   -1.44197800      -0.05263200       3.04380200     
H   -3.27524800      -0.04899700       1.61728600     
H   -2.67580300       0.97751700       0.27311300     
H   -2.63096500      -0.77434300       0.12624200     
H   -0.71751700       0.14535300       0.57552500     
H    1.47100100      -0.01859700       1.84988500     

